AES/1_5_4/ssaes_r1-20_c5_rw1_e4_f0_k1-20_aes_canon_box_aes_mc_bidirectional/ExperimentMinisat_r1_k14cnf_2011-10-29-155801/Result
WARNING: for repeatability, setting FPU to use double precision
============================[ Problem Statistics ]=============================
|                                                                             |
|  Number of variables:           244                                         |
|  Number of clauses:            1190                                         |
|  Parse time:                   0.00 s                                       |
|  Eliminated clauses:           0.00 Mb                                      |
|  Simplification time:          0.00 s                                       |
|                                                                             |
=============================[ Search Statistics ]==============================
| Conflicts  |          ORIGINAL         |          LEARNT          | Progress |
|            |    Vars  Clauses Literals |    Limit  Clauses Lit/Cl |          |
================================================================================
===============================================================================
restarts              : 1
conflicts             : 39             (9752 /sec)
decisions             : 63             (0.00 % random) (15754 /sec)
propagations          : 2440           (610153 /sec)
conflict literals     : 258            (58.45 % deleted)
Memory used           : 8.00 MB
CPU time              : 0.003999 s

SATISFIABLE
